49, 9070
10472, 4423
9676, 4377
7647, 4915
11903, 2561
6873, 3742
4114, 1443
5512, 3425
9699, 1489
2523, 3141
3886, 4792
10359, 2232
5104, 1399
2515, 1646
10900, 3958
6239, 2708
12081, 3158
12048, 2611
2765, 2122
6610, 1480
5139, 1242
7983, 3977
9636, 1423
5632, 3568
7367, 3064
6766, 2412
9288, 3728
4503, 2815
4233, 3434
12180, 2561
10789, 4088
7888, 4448
5511, 3910
11911, 1362
8287, 2530
5109, 1105
6417, 1404
5977, 3757
10641, 4027
3019, 2835
5274, 2850
9620, 2141
11475, 4657
12191, 3462
9659, 3634
7896, 2921
8730, 1554
5250, 1510
5992, 4471
10846, 1326